Instance Name : r107
Authors       : Shobb<shobb@narod.ru>
Date          : 2018-jun-12
Reference     : http://shobb.narod.ru/vrppd.html
Solution
Route 1 : 092 042 043 015 041 022 075 056 074 072 073 058
Route 2 : 059 037 091 044 014 038 086 016 017 005 060
Route 3 : 047 036 046 008 084 061 085 098 100 093 096
Route 4 : 083 045 099 006 087 057 002 013 097 095 094
Route 5 : 052 007 062 011 064 049 019 048 082 018 089
Route 6 : 027 076 003 079 078 034 035 081 077 028
Route 7 : 026 021 039 023 067 055 004 025 054
Route 8 : 069 030 088 031 010 063 090 032 070
Route 9 : 050 033 065 071 009 066 020 051 001
Route 10 : 053 040 012 068 029 024 080
